min:x1+x2+x3+x4+x5+x6+x7+x8+x9+x10+x11+x12+x13+x14+x15+x16+x17+x18+x19+x20+x21+x22+x23+x24+x25+x26+x27+x28+x29+x30;
    A1+B1=1;
    A2+B2=1;
    A3+B3=1;
    A4+B4=1;
    A5+B5=1;
    A6+B6=1;
    A7+B7=1;
    A8+B8=1;
    A9+B9=1;
    A10+B10=1;
    A11+B11=1;
    A12+B12=1;
    A13+B13=1;
    A14+B14=1;
    A15+B15=1;
    A16+B16=1;
    A17+B17=1;
    A18+B18=1;
    A19+B19=1;
    A20+B20=1;
    A21+B21=1;
    A22+B22=1;
    A23+B23=1;
    A24+B24=1;
    A25+B25=1;
    A26+B26=1;
    A27+B27=1;
    A28+B28=1;
    A29+B29=1;
    A30+B30=1;
    A31+B31=1;
    A32+B32=1;
    A33+B33=1;
    A34+B34=1;
    A35+B35=1;
    A36+B36=1;
    A37+B37=1;
    A38+B38=1;
    A39+B39=1;
    A40+B40=1;
    A41+B41=1;
    A42+B42=1;
    A43+B43=1;
    A44+B44=1;
    A45+B45=1;
    A46+B46=1;
    A47+B47=1;
    A48+B48=1;
    A49+B49=1;
    A50+B50=1;
    A51+B51=1;
    A52+B52=1;
    A53+B53=1;
    A54+B54=1;
    A55+B55=1;
    A56+B56=1;
    A57+B57=1;
    A58+B58=1;
    A59+B59=1;
    A60+B60=1;
    A61+B61=1;
    A62+B62=1;
    A63+B63=1;
    A64+B64=1;
    A65+B65=1;
    A66+B66=1;
    A67+B67=1;
    A68+B68=1;
    A69+B69=1;
    A70+B70=1;
    A71+B71=1;
    A72+B72=1;
    A73+B73=1;
    A74+B74=1;
    A75+B75=1;
    A76+B76=1;
    A77+B77=1;
    A78+B78=1;
    A79+B79=1;
    A80+B80=1;
    A81+B81=1;
    A82+B82=1;
    A83+B83=1;
    A84+B84=1;
    A85+B85=1;
    A86+B86=1;
    A87+B87=1;
    A88+B88=1;
    A89+B89=1;
    A90+B90=1;
    A91+B91=1;
    A92+B92=1;
    A93+B93=1;
    A94+B94=1;
    A95+B95=1;
    A96+B96=1;
    A97+B97=1;
    A98+B98=1;
    A99+B99=1;
    A100+B100=1;
    A101+B101=1;
    A1+A2+A3+A4+A5+5 x1>=5;
    A6+A7+A8+1 x2>=1;
    A9+A10+A11+A12+A13+A14+A15+5 x3>=5;
    A16+A17+A18+A19+A20+A21+3 x4>=3;
    B6+A22+A23+A24+A25+A26+A27+A28+A29+A30+A31+1 x5>=1;
    B1+B9+B16+A32+A33+A34+A35+A36+A37+A38+A39+A40+A41+A42+A43+1 x6>=1;
    B10+B32+A44+A45+A46+A47+2 x7>=2;
    B11+B33+B44+A48+3 x8>=3;
    B22+A49+A50+A51+A52+A53+A54+A55+A56+A57+5 x9>=5;
    B2+B34+B49+A58+A59+1 x10>=1;
    B17+B23+B35+B50+A60+A61+A62+5 x11>=5;
    B60+A63+A64+3 x12>=3;
    B36+B51+A65+A66+A67+4 x13>=4;
    B12+B52+A68+A69+A70+A71+2 x14>=2;
    B24+B37+B53+B65+A72+A73+A74+7 x15>=7;
    B3+B18+A75+A76+A77+A78+2 x16>=2;
    B54+B66+B72+A79+A80+4 x17>=4;
    B4+B13+B19+B25+B55+B61+B73+A81+A82+A83+A84+A85+A86+12 x18>=12;
    B7+B14+B26+B45+B58+B81+A87+A88+1 x19>=1;
    B67+B68+A89+A90+3 x20>=3;
    B46+B56+B82+A91+A92+A93+5 x21>=5;
    B8+B27+B69+B83+B89+B91+A94+A95+3 x22>=3;
    B20+B28+B38+B57+B63+B92+A96+A97+A98+2 x23>=2;
    B29+B47+B74+B84+B94+B96+A99+3 x24>=3;
    B39+B62+B75+B85+A100+2 x25>=2;
    B21+B59+B70+B87+B93+B97+A101+3 x26>=3;
    B30+B40+B64+B76+B88+B90+B100+3 x27>=3;
    B5+B41+B48+2 x28>=2;
    B15+B31+B42+B77+B79+B99+B101+7 x29>=7;
    B43+B71+B78+B80+B86+B95+B98+2 x30>=2;
bin A1,B1,A2,B2,A3,B3,A4,B4,A5,B5,A6,B6,A7,B7,A8,B8,A9,B9,A10,B10,A11,B11,A12,B12,A13,B13,A14,B14,A15,B15,A16,B16,A17,B17,A18,B18,A19,B19,A20,B20,A21,B21,A22,B22,A23,B23,A24,B24,A25,B25,A26,B26,A27,B27,A28,B28,A29,B29,A30,B30,A31,B31,A32,B32,A33,B33,A34,B34,A35,B35,A36,B36,A37,B37,A38,B38,A39,B39,A40,B40,A41,B41,A42,B42,A43,B43,A44,B44,A45,B45,A46,B46,A47,B47,A48,B48,A49,B49,A50,B50,A51,B51,A52,B52,A53,B53,A54,B54,A55,B55,A56,B56,A57,B57,A58,B58,A59,B59,A60,B60,A61,B61,A62,B62,A63,B63,A64,B64,A65,B65,A66,B66,A67,B67,A68,B68,A69,B69,A70,B70,A71,B71,A72,B72,A73,B73,A74,B74,A75,B75,A76,B76,A77,B77,A78,B78,A79,B79,A80,B80,A81,B81,A82,B82,A83,B83,A84,B84,A85,B85,A86,B86,A87,B87,A88,B88,A89,B89,A90,B90,A91,B91,A92,B92,A93,B93,A94,B94,A95,B95,A96,B96,A97,B97,A98,B98,A99,B99,A100,B100,A101,B101,x1,x2,x3,x4,x5,x6,x7,x8,x9,x10,x11,x12,x13,x14,x15,x16,x17,x18,x19,x20,x21,x22,x23,x24,x25,x26,x27,x28,x29,x30;
